NAME : gr229
TYPE : OP
DIMENSION : 229
COST_LIMIT : 67301
ROUTE_NODES : 168
ROUTE_SCORE : 9174
ROUTE_COST : 67212
NODE_SEQUENCE_SECTION
1
3
4
5
6
7
8
10
11
18
17
16
20
21
22
23
24
56
57
55
54
58
59
60
61
62
64
65
66
63
67
68
69
71
72
73
74
75
76
77
79
88
80
87
81
82
83
84
25
85
86
89
90
91
93
94
100
101
102
103
112
115
118
119
121
122
123
120
116
113
117
114
111
126
127
128
130
132
133
134
135
137
138
139
142
140
143
144
145
146
147
148
149
151
154
155
150
204
157
156
159
160
161
162
164
165
173
163
172
174
175
176
199
198
197
187
196
195
194
192
193
191
190
189
188
49
47
48
50
184
183
185
186
182
178
180
181
179
177
168
167
169
171
166
125
124
110
109
108
104
105
107
106
99
98
97
96
95
37
35
33
30
27
26
15
14
13
2
-1
DEPOT_SECTION
1
-1
EOF
